(set-info :smt-lib-version 2.6)
(set-logic QF_NIA)
(set-info :source |
Generated by: Cristina Borralleras, Daniel Larraz, Albert Oliveras, Enric Rodriguez-Carbonell, Albert Rubio
Generated on: 2017-04-27
Generator: VeryMax
Application: Termination proving
Target solver: barcelogic
|)
(set-info :license "https://creativecommons.org/licenses/by/4.0/")
(set-info :category "industrial")
(set-info :status unsat)
(declare-fun Nl2main_x1 () Int)
(declare-fun Nl2main_y1 () Int)
(declare-fun lam0n0 () Int)
(declare-fun lam0n1 () Int)
(declare-fun lam0n2 () Int)
(declare-fun lam0n3 () Int)
(declare-fun lam0n4 () Int)
(declare-fun lam0n5 () Int)
(declare-fun lam0n6 () Int)
(declare-fun lam0n7 () Int)
(declare-fun lam0n8 () Int)
(declare-fun lam0n9 () Int)
(declare-fun lam0n10 () Int)
(declare-fun lam0n11 () Int)
(declare-fun Nl2CT1 () Int)
(declare-fun lam1n0 () Int)
(declare-fun lam1n1 () Int)
(declare-fun lam1n2 () Int)
(declare-fun lam1n3 () Int)
(declare-fun lam1n4 () Int)
(declare-fun lam1n5 () Int)
(declare-fun lam1n6 () Int)
(declare-fun lam1n7 () Int)
(declare-fun lam1n8 () Int)
(declare-fun lam1n9 () Int)
(declare-fun lam1n10 () Int)
(declare-fun lam1n11 () Int)
(declare-fun lam4n0 () Int)
(declare-fun lam4n1 () Int)
(declare-fun lam4n2 () Int)
(declare-fun lam4n3 () Int)
(declare-fun lam4n4 () Int)
(declare-fun lam4n5 () Int)
(declare-fun lam4n6 () Int)
(declare-fun lam4n7 () Int)
(declare-fun lam4n8 () Int)
(declare-fun lam4n9 () Int)
(declare-fun lam4n10 () Int)
(declare-fun lam4n11 () Int)
(declare-fun RFN1_CT () Int)
(declare-fun RFN1_main_x () Int)
(declare-fun RFN1_main_y () Int)
(declare-fun lam2n0 () Int)
(declare-fun lam2n1 () Int)
(declare-fun lam2n2 () Int)
(declare-fun lam2n3 () Int)
(declare-fun lam2n4 () Int)
(declare-fun lam2n5 () Int)
(declare-fun lam2n6 () Int)
(declare-fun lam2n7 () Int)
(declare-fun lam2n8 () Int)
(declare-fun lam2n9 () Int)
(declare-fun lam2n10 () Int)
(declare-fun lam2n11 () Int)
(declare-fun lam3n0 () Int)
(declare-fun lam3n1 () Int)
(declare-fun lam3n2 () Int)
(declare-fun lam3n3 () Int)
(declare-fun lam3n4 () Int)
(declare-fun lam3n5 () Int)
(declare-fun lam3n6 () Int)
(declare-fun lam3n7 () Int)
(declare-fun lam3n8 () Int)
(declare-fun lam3n9 () Int)
(declare-fun lam3n10 () Int)
(declare-fun lam3n11 () Int)
(declare-fun lam5n0 () Int)
(declare-fun lam5n1 () Int)
(declare-fun lam5n2 () Int)
(declare-fun lam5n3 () Int)
(declare-fun lam5n4 () Int)
(declare-fun lam5n5 () Int)
(declare-fun lam5n6 () Int)
(declare-fun lam5n7 () Int)
(declare-fun lam5n8 () Int)
(declare-fun lam5n9 () Int)
(declare-fun lam5n10 () Int)
(declare-fun lam5n11 () Int)
(assert ( and ( <= ( - 4 ) Nl2main_x1 ) ( <= Nl2main_x1 4 ) ( <= ( - 4 ) Nl2main_y1 ) ( <= Nl2main_y1 4 ) ))
(assert ( or ( and ( >= lam0n0 0 ) ( >= lam0n1 0 ) ( >= lam0n2 0 ) ( >= lam0n3 0 ) ( >= lam0n4 0 ) ( >= lam0n5 0 ) ( >= lam0n6 0 ) ( >= lam0n7 0 ) ( >= lam0n8 0 ) ( >= lam0n9 0 ) ( >= lam0n10 0 ) ( >= lam0n11 0 ) ( > ( + ( * 2 lam0n0 ) ( * 2 lam0n1 ) ( * 2 lam0n2 ) ( * 1 lam0n3 ) ( * 1 lam0n4 ) ( * 3 lam0n5 ) ( * 50001 lam0n6 ) ( * 50001 lam0n7 ) ( * 50001 lam0n8 ) ( * 50001 lam0n9 ) ( * 50001 lam0n10 ) ( * Nl2CT1 lam0n11 ) ( - 1 ) ) 0 ) ( = ( + ( * ( - 4 ) lam0n0 ) ( * ( - 2 ) lam0n1 ) ( * ( - 3 ) lam0n2 ) ( * ( - 1 ) lam0n3 ) ( * ( - 4 ) lam0n4 ) ( * ( - 2 ) lam0n5 ) ( * 1 lam0n6 ) ( * ( - 1 ) lam0n7 ) ( * ( - 1 ) lam0n8 ) ( * ( - 4 ) lam0n9 ) ( * Nl2main_x1 lam0n11 ) ) 0 ) ( = ( + ( * ( - 3 ) lam0n0 ) ( * ( - 1 ) lam0n1 ) ( * ( - 2 ) lam0n2 ) ( * 1 lam0n3 ) ( * 5 lam0n4 ) ( * 1 lam0n5 ) ( * ( - 2 ) lam0n6 ) ( * ( - 1 ) lam0n8 ) ( * 1 lam0n9 ) ( * ( - 1 ) lam0n10 ) ( * Nl2main_y1 lam0n11 ) ) 0 ) ) ( and ( >= lam1n0 0 ) ( >= lam1n1 0 ) ( >= lam1n2 0 ) ( >= lam1n3 0 ) ( >= lam1n4 0 ) ( >= lam1n5 0 ) ( >= lam1n6 0 ) ( >= lam1n7 0 ) ( >= lam1n8 0 ) ( >= lam1n9 0 ) ( >= lam1n10 0 ) ( >= lam1n11 0 ) ( > ( + ( * 2 lam1n0 ) ( * 2 lam1n1 ) ( * 2 lam1n2 ) ( * 1 lam1n3 ) ( * 1 lam1n4 ) ( * 3 lam1n5 ) ( * 50001 lam1n6 ) ( * 50001 lam1n7 ) ( * 50001 lam1n8 ) ( * 50001 lam1n9 ) ( * 50001 lam1n10 ) ( * Nl2CT1 lam1n11 ) ( - 1 ( + ( + Nl2CT1 ( * Nl2main_x1 0 ) ) ( * Nl2main_y1 0 ) ) ) ) 0 ) ( = ( + ( * ( - 4 ) lam1n0 ) ( * ( - 2 ) lam1n1 ) ( * ( - 3 ) lam1n2 ) ( * ( - 1 ) lam1n3 ) ( * ( - 4 ) lam1n4 ) ( * ( - 2 ) lam1n5 ) ( * 1 lam1n6 ) ( * ( - 1 ) lam1n7 ) ( * ( - 1 ) lam1n8 ) ( * ( - 4 ) lam1n9 ) ( * Nl2main_x1 lam1n11 ) ( - ( + ( + 0 ( * Nl2main_x1 2 ) ) ( * Nl2main_y1 4 ) ) ) ) 0 ) ( = ( + ( * ( - 3 ) lam1n0 ) ( * ( - 1 ) lam1n1 ) ( * ( - 2 ) lam1n2 ) ( * 1 lam1n3 ) ( * 5 lam1n4 ) ( * 1 lam1n5 ) ( * ( - 2 ) lam1n6 ) ( * ( - 1 ) lam1n8 ) ( * 1 lam1n9 ) ( * ( - 1 ) lam1n10 ) ( * Nl2main_y1 lam1n11 ) ( - ( + 0 ( * Nl2main_x1 4 ) ) ) ) 0 ) ) ))
(assert ( or ( and ( >= lam0n0 0 ) ( >= lam0n1 0 ) ( >= lam0n2 0 ) ( >= lam0n3 0 ) ( >= lam0n4 0 ) ( >= lam0n5 0 ) ( >= lam0n6 0 ) ( >= lam0n7 0 ) ( >= lam0n8 0 ) ( >= lam0n9 0 ) ( >= lam0n10 0 ) ( >= lam0n11 0 ) ( > ( + ( * 2 lam0n0 ) ( * 2 lam0n1 ) ( * 2 lam0n2 ) ( * 1 lam0n3 ) ( * 1 lam0n4 ) ( * 3 lam0n5 ) ( * 50001 lam0n6 ) ( * 50001 lam0n7 ) ( * 50001 lam0n8 ) ( * 50001 lam0n9 ) ( * 50001 lam0n10 ) ( * Nl2CT1 lam0n11 ) ( - 1 ) ) 0 ) ( = ( + ( * ( - 4 ) lam0n0 ) ( * ( - 2 ) lam0n1 ) ( * ( - 3 ) lam0n2 ) ( * ( - 1 ) lam0n3 ) ( * ( - 4 ) lam0n4 ) ( * ( - 2 ) lam0n5 ) ( * 1 lam0n6 ) ( * ( - 1 ) lam0n7 ) ( * ( - 1 ) lam0n8 ) ( * ( - 4 ) lam0n9 ) ( * Nl2main_x1 lam0n11 ) ) 0 ) ( = ( + ( * ( - 3 ) lam0n0 ) ( * ( - 1 ) lam0n1 ) ( * ( - 2 ) lam0n2 ) ( * 1 lam0n3 ) ( * 5 lam0n4 ) ( * 1 lam0n5 ) ( * ( - 2 ) lam0n6 ) ( * ( - 1 ) lam0n8 ) ( * 1 lam0n9 ) ( * ( - 1 ) lam0n10 ) ( * Nl2main_y1 lam0n11 ) ) 0 ) ) ( and ( >= lam4n0 0 ) ( >= lam4n1 0 ) ( >= lam4n2 0 ) ( >= lam4n3 0 ) ( >= lam4n4 0 ) ( >= lam4n5 0 ) ( >= lam4n6 0 ) ( >= lam4n7 0 ) ( >= lam4n8 0 ) ( >= lam4n9 0 ) ( >= lam4n10 0 ) ( >= lam4n11 0 ) ( > ( + ( * 2 lam4n0 ) ( * 2 lam4n1 ) ( * 2 lam4n2 ) ( * 1 lam4n3 ) ( * 1 lam4n4 ) ( * 3 lam4n5 ) ( * 50001 lam4n6 ) ( * 50001 lam4n7 ) ( * 50001 lam4n8 ) ( * 50001 lam4n9 ) ( * 50001 lam4n10 ) ( * Nl2CT1 lam4n11 ) ( - 1 ( - ( + ( + RFN1_CT ( * RFN1_main_x 0 ) ) ( * RFN1_main_y 0 ) ) RFN1_CT ) ) ) 0 ) ( = ( + ( * ( - 4 ) lam4n0 ) ( * ( - 2 ) lam4n1 ) ( * ( - 3 ) lam4n2 ) ( * ( - 1 ) lam4n3 ) ( * ( - 4 ) lam4n4 ) ( * ( - 2 ) lam4n5 ) ( * 1 lam4n6 ) ( * ( - 1 ) lam4n7 ) ( * ( - 1 ) lam4n8 ) ( * ( - 4 ) lam4n9 ) ( * Nl2main_x1 lam4n11 ) ( - ( - ( + ( + 0 ( * RFN1_main_x 2 ) ) ( * RFN1_main_y 4 ) ) RFN1_main_x ) ) ) 0 ) ( = ( + ( * ( - 3 ) lam4n0 ) ( * ( - 1 ) lam4n1 ) ( * ( - 2 ) lam4n2 ) ( * 1 lam4n3 ) ( * 5 lam4n4 ) ( * 1 lam4n5 ) ( * ( - 2 ) lam4n6 ) ( * ( - 1 ) lam4n8 ) ( * 1 lam4n9 ) ( * ( - 1 ) lam4n10 ) ( * Nl2main_y1 lam4n11 ) ( - ( - ( + 0 ( * RFN1_main_x 4 ) ) RFN1_main_y ) ) ) 0 ) ) ))
(assert ( and ( and ( and ( >= lam2n0 0 ) ( >= lam2n1 0 ) ( >= lam2n2 0 ) ( >= lam2n3 0 ) ( >= lam2n4 0 ) ( >= lam2n5 0 ) ( >= lam2n6 0 ) ( >= lam2n7 0 ) ( >= lam2n8 0 ) ( >= lam2n9 0 ) ( >= lam2n10 0 ) ( >= lam2n11 0 ) ( > ( + ( * 2 lam2n0 ) ( * 2 lam2n1 ) ( * 2 lam2n2 ) ( * 1 lam2n3 ) ( * 1 lam2n4 ) ( * 3 lam2n5 ) ( * 50001 lam2n6 ) ( * 50001 lam2n7 ) ( * 50001 lam2n8 ) ( * 50001 lam2n9 ) ( * 50001 lam2n10 ) ( * Nl2CT1 lam2n11 ) ( - 1 ( - RFN1_CT ) ) ) 0 ) ( = ( + ( * ( - 4 ) lam2n0 ) ( * ( - 2 ) lam2n1 ) ( * ( - 3 ) lam2n2 ) ( * ( - 1 ) lam2n3 ) ( * ( - 4 ) lam2n4 ) ( * ( - 2 ) lam2n5 ) ( * 1 lam2n6 ) ( * ( - 1 ) lam2n7 ) ( * ( - 1 ) lam2n8 ) ( * ( - 4 ) lam2n9 ) ( * Nl2main_x1 lam2n11 ) ( - ( - RFN1_main_x ) ) ) 0 ) ( = ( + ( * ( - 3 ) lam2n0 ) ( * ( - 1 ) lam2n1 ) ( * ( - 2 ) lam2n2 ) ( * 1 lam2n3 ) ( * 5 lam2n4 ) ( * 1 lam2n5 ) ( * ( - 2 ) lam2n6 ) ( * ( - 1 ) lam2n8 ) ( * 1 lam2n9 ) ( * ( - 1 ) lam2n10 ) ( * Nl2main_y1 lam2n11 ) ( - ( - RFN1_main_y ) ) ) 0 ) ) ( and ( >= lam3n0 0 ) ( >= lam3n1 0 ) ( >= lam3n2 0 ) ( >= lam3n3 0 ) ( >= lam3n4 0 ) ( >= lam3n5 0 ) ( >= lam3n6 0 ) ( >= lam3n7 0 ) ( >= lam3n8 0 ) ( >= lam3n9 0 ) ( >= lam3n10 0 ) ( >= lam3n11 0 ) ( > ( + ( * 2 lam3n0 ) ( * 2 lam3n1 ) ( * 2 lam3n2 ) ( * 1 lam3n3 ) ( * 1 lam3n4 ) ( * 3 lam3n5 ) ( * 50001 lam3n6 ) ( * 50001 lam3n7 ) ( * 50001 lam3n8 ) ( * 50001 lam3n9 ) ( * 50001 lam3n10 ) ( * Nl2CT1 lam3n11 ) ( - 1 ( + ( - ( + ( + RFN1_CT ( * RFN1_main_x 0 ) ) ( * RFN1_main_y 0 ) ) RFN1_CT ) 1 ) ) ) 0 ) ( = ( + ( * ( - 4 ) lam3n0 ) ( * ( - 2 ) lam3n1 ) ( * ( - 3 ) lam3n2 ) ( * ( - 1 ) lam3n3 ) ( * ( - 4 ) lam3n4 ) ( * ( - 2 ) lam3n5 ) ( * 1 lam3n6 ) ( * ( - 1 ) lam3n7 ) ( * ( - 1 ) lam3n8 ) ( * ( - 4 ) lam3n9 ) ( * Nl2main_x1 lam3n11 ) ( - ( - ( + ( + 0 ( * RFN1_main_x 2 ) ) ( * RFN1_main_y 4 ) ) RFN1_main_x ) ) ) 0 ) ( = ( + ( * ( - 3 ) lam3n0 ) ( * ( - 1 ) lam3n1 ) ( * ( - 2 ) lam3n2 ) ( * 1 lam3n3 ) ( * 5 lam3n4 ) ( * 1 lam3n5 ) ( * ( - 2 ) lam3n6 ) ( * ( - 1 ) lam3n8 ) ( * 1 lam3n9 ) ( * ( - 1 ) lam3n10 ) ( * Nl2main_y1 lam3n11 ) ( - ( - ( + 0 ( * RFN1_main_x 4 ) ) RFN1_main_y ) ) ) 0 ) ) ) ( and ( >= lam5n0 0 ) ( >= lam5n1 0 ) ( >= lam5n2 0 ) ( >= lam5n3 0 ) ( >= lam5n4 0 ) ( >= lam5n5 0 ) ( >= lam5n6 0 ) ( >= lam5n7 0 ) ( >= lam5n8 0 ) ( >= lam5n9 0 ) ( >= lam5n10 0 ) ( >= lam5n11 0 ) ( > ( + ( * 2 lam5n0 ) ( * 2 lam5n1 ) ( * 2 lam5n2 ) ( * 1 lam5n3 ) ( * 1 lam5n4 ) ( * 3 lam5n5 ) ( * 50001 lam5n6 ) ( * 50001 lam5n7 ) ( * 50001 lam5n8 ) ( * 50001 lam5n9 ) ( * 50001 lam5n10 ) ( * ( + ( - Nl2CT1 ) 1 ) lam5n11 ) ( - 1 ) ) 0 ) ( = ( + ( * ( - 4 ) lam5n0 ) ( * ( - 2 ) lam5n1 ) ( * ( - 3 ) lam5n2 ) ( * ( - 1 ) lam5n3 ) ( * ( - 4 ) lam5n4 ) ( * ( - 2 ) lam5n5 ) ( * 1 lam5n6 ) ( * ( - 1 ) lam5n7 ) ( * ( - 1 ) lam5n8 ) ( * ( - 4 ) lam5n9 ) ( * ( - Nl2main_x1 ) lam5n11 ) ) 0 ) ( = ( + ( * ( - 3 ) lam5n0 ) ( * ( - 1 ) lam5n1 ) ( * ( - 2 ) lam5n2 ) ( * 1 lam5n3 ) ( * 5 lam5n4 ) ( * 1 lam5n5 ) ( * ( - 2 ) lam5n6 ) ( * ( - 1 ) lam5n8 ) ( * 1 lam5n9 ) ( * ( - 1 ) lam5n10 ) ( * ( - Nl2main_y1 ) lam5n11 ) ) 0 ) ) ))
(check-sat)
(exit)
